c initialized bestCost to 389018818
o 389018818
c first lower bound: 339399743
o 388409421
c 508 branches 1 propagates
c total generalized unit propagation = 778, success = 34.58%
s OPTIMUM FOUND
c Optimal Solution = 388409421
v -1 2 -3 -4 -5 6 -7 -8 -9 -10 -11 -12
c This is the CCLS_to_akmaxsat solver, Version: MSE2016
c Many thanks to the akmaxsat team!
c start CCLS
c stop CCLS
c start akmaxsat
c stop akmaxsat
